120
[12,15,16,19,20,21,22,23,25,26,28,31,32,33,36,38,39,41,45,46,47,48,49,50,52,54,55,56,57,58,59,60,61,62,63,64,66,67,68,71,73,76,77,78,79,80,81,82,84]
[2,1,3,4,2,2,1,1,2,6,1,1,2,1,3,3,1,3,2,2,3,1,5,2,1,2,2,3,4,2,2,3,1,2,1,3,1,1,3,1,2,3,1,1,1,2,2,1,1]
